n_machines = 5;
n_resources = 10;
n_jobs = 100;
horizon = 5368;
LB = 1073;
n_jobs_per_resource = [10, 10, 10, 10, 10, 10, 10, 10, 10, 10];
duration = [10, 80, 77, 63, 82, 75, 97, 68, 80, 17, 65, 89, 69, 4, 40, 86, 63, 63, 80, 35, 44, 29, 9, 78, 93, 85, 69, 78, 28, 91, 48, 50, 81, 87, 11, 8, 86, 24, 56, 71, 10, 55, 1, 89, 96, 71, 50, 31, 61, 27, 6, 70, 35, 39, 43, 8, 34, 43, 54, 58, 30, 80, 33, 73, 35, 29, 27, 69, 41, 63, 78, 90, 84, 41, 56, 35, 51, 24, 84, 17, 39, 73, 43, 36, 91, 6, 23, 98, 74, 12, 58, 94, 70, 45, 58, 41, 33, 17, 75, 92]